\* Проблема_распределения_пива *\
Minimize
Sum_of_Transporting_Costs: 2 Маршрут_A_1 + 4 Маршрут_A_2 + 5 Маршрут_A_3
 + 2 Маршрут_A_4 + Маршрут_A_5 + 3 Маршрут_B_1 + Маршрут_B_2 + 3 Маршрут_B_3
 + 2 Маршрут_B_4 + 3 Маршрут_B_5
Subject To
Sum_of_Products_into_Bar1: Маршрут_A_1 + Маршрут_B_1 >= 500
Sum_of_Products_into_Bar2: Маршрут_A_2 + Маршрут_B_2 >= 900
Sum_of_Products_into_Bar3: Маршрут_A_3 + Маршрут_B_3 >= 1800
Sum_of_Products_into_Bar4: Маршрут_A_4 + Маршрут_B_4 >= 200
Sum_of_Products_into_Bar5: Маршрут_A_5 + Маршрут_B_5 >= 700
Sum_of_Products_out_of_Warehouse_A: Маршрут_A_1 + Маршрут_A_2 + Маршрут_A_3
 + Маршрут_A_4 + Маршрут_A_5 <= 1000
Sum_of_Products_out_of_Warehouse_B: Маршрут_B_1 + Маршрут_B_2 + Маршрут_B_3
 + Маршрут_B_4 + Маршрут_B_5 <= 4000
Bounds
0 <= Маршрут_A_1
0 <= Маршрут_A_2
0 <= Маршрут_A_3
0 <= Маршрут_A_4
0 <= Маршрут_A_5
0 <= Маршрут_B_1
0 <= Маршрут_B_2
0 <= Маршрут_B_3
0 <= Маршрут_B_4
0 <= Маршрут_B_5
Generals
Маршрут_A_1
Маршрут_A_2
Маршрут_A_3
Маршрут_A_4
Маршрут_A_5
Маршрут_B_1
Маршрут_B_2
Маршрут_B_3
Маршрут_B_4
Маршрут_B_5
End
